certificates/rado_a6_c242_N40.cnf
c Rad2 upper bound instance: x1 + 6*x2 - x3 = 242, interval [1,40]
p cnf 40 280
1 3 40 0
-1 -3 -40 0
2 4 40 0
-2 -4 -40 0
3 5 40 0
-3 -5 -40 0
4 6 40 0
-4 -6 -40 0
5 7 40 0
-5 -7 -40 0
6 8 40 0
-6 -8 -40 0
1 9 39 0
-1 -9 -39 0
7 9 40 0
-7 -9 -40 0
2 10 39 0
-2 -10 -39 0
8 10 40 0
-8 -10 -40 0
3 11 39 0
-3 -11 -39 0
9 11 40 0
-9 -11 -40 0
4 12 39 0
-4 -12 -39 0
10 12 40 0
-10 -12 -40 0
5 13 39 0
-5 -13 -39 0
11 13 40 0
-11 -13 -40 0
6 14 39 0
-6 -14 -39 0
12 14 40 0
-12 -14 -40 0
1 15 38 0
-1 -15 -38 0
7 15 39 0
-7 -15 -39 0
13 15 40 0
-13 -15 -40 0
2 16 38 0
-2 -16 -38 0
8 16 39 0
-8 -16 -39 0
14 16 40 0
-14 -16 -40 0
3 17 38 0
-3 -17 -38 0
9 17 39 0
-9 -17 -39 0
15 17 40 0
-15 -17 -40 0
4 18 38 0
-4 -18 -38 0
10 18 39 0
-10 -18 -39 0
16 18 40 0
-16 -18 -40 0
5 19 38 0
-5 -19 -38 0
11 19 39 0
-11 -19 -39 0
17 19 40 0
-17 -19 -40 0
6 20 38 0
-6 -20 -38 0
12 20 39 0
-12 -20 -39 0
18 20 40 0
-18 -20 -40 0
1 21 37 0
-1 -21 -37 0
7 21 38 0
-7 -21 -38 0
13 21 39 0
-13 -21 -39 0
19 21 40 0
-19 -21 -40 0
2 22 37 0
-2 -22 -37 0
8 22 38 0
-8 -22 -38 0
14 22 39 0
-14 -22 -39 0
20 22 40 0
-20 -22 -40 0
3 23 37 0
-3 -23 -37 0
9 23 38 0
-9 -23 -38 0
15 23 39 0
-15 -23 -39 0
21 23 40 0
-21 -23 -40 0
4 24 37 0
-4 -24 -37 0
10 24 38 0
-10 -24 -38 0
16 24 39 0
-16 -24 -39 0
22 24 40 0
-22 -24 -40 0
5 25 37 0
-5 -25 -37 0
11 25 38 0
-11 -25 -38 0
17 25 39 0
-17 -25 -39 0
23 25 40 0
-23 -25 -40 0
6 26 37 0
-6 -26 -37 0
12 26 38 0
-12 -26 -38 0
18 26 39 0
-18 -26 -39 0
24 26 40 0
-24 -26 -40 0
1 27 36 0
-1 -27 -36 0
7 27 37 0
-7 -27 -37 0
13 27 38 0
-13 -27 -38 0
19 27 39 0
-19 -27 -39 0
25 27 40 0
-25 -27 -40 0
2 28 36 0
-2 -28 -36 0
8 28 37 0
-8 -28 -37 0
14 28 38 0
-14 -28 -38 0
20 28 39 0
-20 -28 -39 0
26 28 40 0
-26 -28 -40 0
3 29 36 0
-3 -29 -36 0
9 29 37 0
-9 -29 -37 0
15 29 38 0
-15 -29 -38 0
21 29 39 0
-21 -29 -39 0
27 29 40 0
-27 -29 -40 0
4 30 36 0
-4 -30 -36 0
10 30 37 0
-10 -30 -37 0
16 30 38 0
-16 -30 -38 0
22 30 39 0
-22 -30 -39 0
28 30 40 0
-28 -30 -40 0
5 31 36 0
-5 -31 -36 0
11 31 37 0
-11 -31 -37 0
17 31 38 0
-17 -31 -38 0
23 31 39 0
-23 -31 -39 0
29 31 40 0
-29 -31 -40 0
6 32 36 0
-6 -32 -36 0
12 32 37 0
-12 -32 -37 0
18 32 38 0
-18 -32 -38 0
24 32 39 0
-24 -32 -39 0
30 32 40 0
-30 -32 -40 0
1 33 35 0
-1 -33 -35 0
7 33 36 0
-7 -33 -36 0
13 33 37 0
-13 -33 -37 0
19 33 38 0
-19 -33 -38 0
25 33 39 0
-25 -33 -39 0
31 33 40 0
-31 -33 -40 0
2 34 35 0
-2 -34 -35 0
8 34 36 0
-8 -34 -36 0
14 34 37 0
-14 -34 -37 0
20 34 38 0
-20 -34 -38 0
26 34 39 0
-26 -34 -39 0
32 34 40 0
-32 -34 -40 0
3 35 0
-3 -35 0
9 35 36 0
-9 -35 -36 0
15 35 37 0
-15 -35 -37 0
21 35 38 0
-21 -35 -38 0
27 35 39 0
-27 -35 -39 0
33 35 40 0
-33 -35 -40 0
4 35 36 0
-4 -35 -36 0
10 36 0
-10 -36 0
16 36 37 0
-16 -36 -37 0
22 36 38 0
-22 -36 -38 0
28 36 39 0
-28 -36 -39 0
34 36 40 0
-34 -36 -40 0
5 35 37 0
-5 -35 -37 0
11 36 37 0
-11 -36 -37 0
17 37 0
-17 -37 0
23 37 38 0
-23 -37 -38 0
29 37 39 0
-29 -37 -39 0
35 37 40 0
-35 -37 -40 0
6 35 38 0
-6 -35 -38 0
12 36 38 0
-12 -36 -38 0
18 37 38 0
-18 -37 -38 0
24 38 0
-24 -38 0
30 38 39 0
-30 -38 -39 0
36 38 40 0
-36 -38 -40 0
1 34 39 0
-1 -34 -39 0
7 35 39 0
-7 -35 -39 0
13 36 39 0
-13 -36 -39 0
19 37 39 0
-19 -37 -39 0
25 38 39 0
-25 -38 -39 0
31 39 0
-31 -39 0
37 39 40 0
-37 -39 -40 0
2 34 40 0
-2 -34 -40 0
8 35 40 0
-8 -35 -40 0
14 36 40 0
-14 -36 -40 0
20 37 40 0
-20 -37 -40 0
26 38 40 0
-26 -38 -40 0
32 39 40 0
-32 -39 -40 0
38 40 0
-38 -40 0
