certificates/rado_a6_c242_N40.drat
-40 0
38 0
-24 0
22 0
26 0
-8 0
-36 0
-12 0
6 0
10 0
35 0
34 0
14 0
-20 0
-37 0
0
